c This is QMaxSAT 2017 based on 14.07
c This is Glucose 3.0
c This is MiniSat 2.2.0
c WARNING: for repeatability, setting FPU to use double precision
c card = mrwto, comp = 0, pmodel = 0, narr = 2, mct = 16, verb = 0
cr firstCPXsol 0 0 0
c top = 214379
c |  Number of variables:    578                                              |
c |  Number of clauses:      8089                                             |
c |  Weight of hard clauses: 214379                                           |
c |  Number of soft clauses: 540                                              |
c |  Number of unit soft clauses: 0                                           |
c |  Maximum Cardinality (by unit): 473168       (0           )               |
c last restart ## conflicts  :  0 41 
o 7769 | cpuTime 0.003737 s
c Sum of weights = 236584
c A number of soft clauses remained = 270
c MRWTO encoding for Pseudo-Boolean Constraints
c sizeMax=7769
c No.0 Divisor=10	generated by pow1
c No.1 Divisor=10	generated by pow1
c No.2 Divisor=10	generated by pow1
c No.3 Divisor=10	generated by pow1
c p0= 10	p1= 10	p2= 10	p3= 10	
c number of digits = 5
c linkingVar[0].size = 10, linkingVar[1].size = 10, linkingVar[2].size = 10, linkingVar[3].size = 8, linkingVar[4].size = 1, 
c Pseudo-Boolean Constraints: 7218 variables and 65224 clauses
c Sum of weights = 236584
c A number of soft clauses remained = 270
c MRWTO encoding for Pseudo-Boolean Constraints
c sizeMax=7769
c No.0 Divisor=10	generated by pow1
c No.1 Divisor=10	generated by pow1
c No.2 Divisor=10	generated by pow1
c No.3 Divisor=10	generated by pow1
c p0= 10	p1= 10	p2= 10	p3= 10	
c number of digits = 5
c linkingVar[0].size = 10, linkingVar[1].size = 10, linkingVar[2].size = 10, linkingVar[3].size = 8, linkingVar[4].size = 1, 
c Pseudo-Boolean Constraints: 7218 variables and 65224 clauses
c last restart ## conflicts  :  139 611 
o 7753 | cpuTime 0.089018 s
c last restart ## conflicts  :  72 905 
o 6558 | cpuTime 0.112715 s
c last restart ## conflicts  :  97 674 
o 5915 | cpuTime 0.240949 s
c last restart ## conflicts  :  66 813 
o 5764 | cpuTime 1.56944 s
c last restart ## conflicts  :  16218 848 
o 5674 | cpuTime 432.715 s
c last restart ## conflicts  :  39015 538 
o 5604 | cpuTime 439.116 s
c last restart ## conflicts  :  156374 635 
o 5573 | cpuTime 493.367 s
c last restart ## conflicts  :  1208 544 
o 5572 | cpuTime 755.762 s
c last restart ## conflicts  :  11 798 
o 5530 | cpuTime 755.769 s
c last restart ## conflicts  :  1012 687 
o 5271 | cpuTime 757.337 s
c last restart ## conflicts  :  415771 519 
o 5261 | cpuTime 2029.06 s
s UNKNOWN
c Search is stopped by a limit (maybe time-limit)
cr positiVarArr: [ | 9(1->8) | 29(1->11) | 38(2->3) | 56(3->4) | 70(4->1) | 101(5->15) | 110(6->7) | 129(7->9) | 153(8->16) | 159(9->5) | 171(10->1) | 198(11->10) | 207(12->2) | 228(13->6) | 251(14->12) | 270(15->14) | 286(16->13) | ]
cr the 1-th chain: [ 1->8->16->13->6->7->9->5->15->14->12->2->3->4->1 ] (#non-depot=13) {#cumul.=14}
cr the 2-th chain: [ 1->11->10->1 ] (#non-depot=2) {#cumul.=16}
c Latest Answer = 0 by 12 loops
c restarts              : 71489
c conflicts             : 14761751       (3922 /sec)
c decisions             : 21761683       (0.00 % random) (5782 /sec)
c propagations          : 727583700      (193305 /sec)
c conflict literals     : 857221803      (18.64 % deleted)
c Memory used           : 363.00 MB
c CPU time              : 3763.92 s
